;; sequence(s): A38665
;; terms: 3 8 25 84 294 1056 3861 14300 53482 201552 764218 2912168 11143500 42791040 164812365 636438060 2463251010 9552774000 37112526990 144410649240
;; small program: loop((((1 + 2) * (x * y)) div (2 + y)) + x, x, 1 + (2 + x))
;; fast program: (loop(2 * (((x div y) + x) + x), x, 2) div ((1 + x) * (2 + x))) * (1 + (2 + x))
(set-logic UFNIA)
(define-fun divf ((a Int) (b Int)) Int (ite (< 0 b) (div a b) (div (- a) (- b))))
(declare-fun f0 (Int Int) Int)
(declare-fun g0 (Int) Int)
(declare-fun h0 (Int) Int)
(declare-fun u0 (Int Int) Int)
(declare-fun v0 (Int) Int)
(declare-fun small (Int) Int)
(declare-fun f1 (Int Int) Int)
(declare-fun g1 (Int) Int)
(declare-fun h1 () Int)
(declare-fun u1 (Int Int) Int)
(declare-fun v1 (Int) Int)
(declare-fun fast (Int) Int)
(assert (forall ((x Int) (y Int)) (= (f0 x y) (+ (divf (* (+ 1 2) (* x y)) (+ 2 y)) x))))
(assert (forall ((x Int)) (= (g0 x) x)))
(assert (forall ((x Int)) (= (h0 x) (+ 1 (+ 2 x)))))
(assert (forall ((x Int) (y Int)) (= (u0 x y) (ite (<= x 0) y (f0 (u0 (- x 1) y) x)))))
(assert (forall ((x Int)) (= (v0 x) (u0 (g0 x) (h0 x)))))
(assert (forall ((x Int)) (= (small x) (v0 x))))
(assert (forall ((x Int) (y Int)) (= (f1 x y) (* 2 (+ (+ (divf x y) x) x)))))
(assert (forall ((x Int)) (= (g1 x) x)))
(assert (= h1 2))
(assert (forall ((x Int) (y Int)) (= (u1 x y) (ite (<= x 0) y (f1 (u1 (- x 1) y) x)))))
(assert (forall ((x Int)) (= (v1 x) (u1 (g1 x) h1))))
(assert (forall ((x Int)) (= (fast x) (* (divf (v1 x) (* (+ 1 x) (+ 2 x))) (+ 1 (+ 2 x))))))
(assert (exists ((c Int)) (and (>= c 0) (not (= (small c) (fast c))))))
(check-sat)
